p cnf 7230 15
-1480 1676 -1681 0
1480 -1677 0
-1677 1681 0
196 1514 1674 0
-196 -1675 0
-1676 1677 0
-1674 1675 0
-1514 -1675 0
-1679 1681 0
1680 -1681 0
1678 -1680 0
-1320 1679 0
1320 -1678 0
-1672 1673 0
1672 -1673 0
